Route #1: 4 13 74
Route #2: 8 17
Route #3: 25 65 78 42 28
Route #4: 21 56 94 80
Route #5: 93 75
Route #6: 82 60 59
Route #7: 35 46 31
Route #8: 1 70 54
Route #9: 24 95 73 53 33 32
Route #10: 7 2 45 43 29 36 72 57
Route #11: 89 98 99 62 71
Route #12: 14 49 6 37 87
Route #13: 39 10 18
Route #14: 69 16 55 76
Route #15: 20 41 22 15
Route #16: 3 77 63
Route #17: 52 91 50
Route #18: 44 88 67 40
Route #19: 23 61 100
Route #20: 19 97 27
Route #21: 92 9 86
Route #22: 30 85 11 79
Route #23: 34 64 96 48 26 47 38
Route #24: 66 84 90 68
Route #25: 5 12 58
Route #26: 83 51 81
Cost 27591.0000
Time 16.0001